words_hard_train/1361.qaiger
aag 78 24 0 1 54
2
4
8
16
18
28
30
42
50
52
64
66
70
78
80
84
92
100
102
106
122
124
136
138
157
6 2 4
10 7 9
12 6 8
14 11 13
20 17 19
22 15 20
24 14 21
26 23 25
32 29 31
34 33 2
36 32 3
38 35 37
40 27 38
44 13 43
46 12 42
48 45 47
54 51 53
56 48 54
58 49 55
60 57 59
62 40 60
68 65 67
72 69 71
74 68 70
76 73 75
82 79 81
86 83 84
88 82 85
90 87 89
94 46 92
96 91 94
98 76 97
104 101 103
108 105 106
110 104 107
112 109 111
114 98 113
116 62 114
118 47 93
120 119 95
126 123 125
128 121 127
130 116 129
132 3 5
134 133 7
140 137 139
142 135 141
144 134 140
146 143 145
148 120 126
150 90 95
152 149 151
154 146 152
156 130 154
i0 1 x1[2]
i1 1 x1[3]
i2 1 x1[4]
i3 1 x2[4]
i4 2 y2[4]
i5 1 x2[2]
i6 2 y2[2]
i7 1 x1[5]
i8 1 x2[5]
i9 2 y2[5]
i10 1 x2[0]
i11 2 y2[0]
i12 1 x1[0]
i13 1 x2[7]
i14 2 y2[7]
i15 1 x1[7]
i16 1 x1[6]
i17 1 x2[1]
i18 2 y2[1]
i19 1 x1[1]
i20 1 x2[6]
i21 2 y2[6]
i22 1 x2[3]
i23 2 y2[3]
o0 bool[0]
c
simplified
  !=
    or
      2 y2
      1 x2
    add
      << 2
        1
      1 x1
