words_hard_train/1361.qaiger.qdimacs
p cnf 78 163
a 32 1 2 35 4 68 39 8 42 14 46 50 21 53 25 61 0
e 3 5 6 7 9 10 11 12 13 15 16 17 18 19 20 22 23 24 26 27 28 29 30 31 33 34 36 37 38 40 41 43 44 45 47 48 49 51 52 54 55 56 57 58 59 60 62 63 64 65 66 67 69 70 71 72 73 74 75 76 77 78 0
-1 -2 3 0
1 -3 0
2 -3 0
3 4 5 0
-3 -5 0
-4 -5 0
-3 -4 6 0
3 -6 0
4 -6 0
5 6 7 0
-5 -7 0
-6 -7 0
8 9 10 0
-8 -10 0
-9 -10 0
7 -10 11 0
-7 -11 0
10 -11 0
-7 10 12 0
7 -12 0
-10 -12 0
11 12 13 0
-11 -13 0
-12 -13 0
14 15 16 0
-14 -16 0
-15 -16 0
16 -1 17 0
-16 -17 0
1 -17 0
-16 1 18 0
16 -18 0
-1 -18 0
17 18 19 0
-17 -19 0
-18 -19 0
13 -19 20 0
-13 -20 0
19 -20 0
6 21 22 0
-6 -22 0
-21 -22 0
-6 -21 23 0
6 -23 0
21 -23 0
22 23 24 0
-22 -24 0
-23 -24 0
25 26 27 0
-25 -27 0
-26 -27 0
-24 -27 28 0
24 -28 0
27 -28 0
24 27 29 0
-24 -29 0
-27 -29 0
28 29 30 0
-28 -30 0
-29 -30 0
-20 -30 31 0
20 -31 0
30 -31 0
32 33 34 0
-32 -34 0
-33 -34 0
34 35 36 0
-34 -36 0
-35 -36 0
-34 -35 37 0
34 -37 0
35 -37 0
36 37 38 0
-36 -38 0
-37 -38 0
39 40 41 0
-39 -41 0
-40 -41 0
41 -42 43 0
-41 -43 0
42 -43 0
-41 42 44 0
41 -44 0
-42 -44 0
43 44 45 0
-43 -45 0
-44 -45 0
-23 -46 47 0
23 -47 0
46 -47 0
45 -47 48 0
-45 -48 0
47 -48 0
-38 48 49 0
38 -49 0
-48 -49 0
50 51 52 0
-50 -52 0
-51 -52 0
52 -53 54 0
-52 -54 0
53 -54 0
-52 53 55 0
52 -55 0
-53 -55 0
54 55 56 0
-54 -56 0
-55 -56 0
-49 56 57 0
49 -57 0
-56 -57 0
-31 -57 58 0
31 -58 0
57 -58 0
23 46 59 0
-23 -59 0
-46 -59 0
59 47 60 0
-59 -60 0
-47 -60 0
61 62 63 0
-61 -63 0
-62 -63 0
60 63 64 0
-60 -64 0
-63 -64 0
-58 64 65 0
58 -65 0
-64 -65 0
1 2 66 0
-1 -66 0
-2 -66 0
66 3 67 0
-66 -67 0
-3 -67 0
68 69 70 0
-68 -70 0
-69 -70 0
67 70 71 0
-67 -71 0
-70 -71 0
-67 -70 72 0
67 -72 0
70 -72 0
71 72 73 0
-71 -73 0
-72 -73 0
-60 -63 74 0
60 -74 0
63 -74 0
-45 47 75 0
45 -75 0
-47 -75 0
74 75 76 0
-74 -76 0
-75 -76 0
-73 -76 77 0
73 -77 0
76 -77 0
-65 -77 78 0
65 -78 0
77 -78 0
-78 0
